c Reduced graph for p26_0 generated by Cyril Grelier
p edge 35 122
e 1 8
e 1 17
e 1 24
e 1 35
e 2 3
e 2 6
e 2 12
e 2 13
e 2 14
e 2 17
e 2 21
e 2 22
e 2 31
e 2 34
e 3 7
e 3 17
e 3 20
e 3 21
e 3 22
e 3 31
e 3 32
e 3 34
e 4 12
e 4 15
e 4 21
e 4 29
e 4 30
e 4 32
e 4 33
e 4 35
e 5 7
e 5 14
e 5 23
e 5 24
e 5 25
e 5 26
e 5 27
e 6 11
e 6 12
e 6 13
e 6 14
e 6 16
e 6 26
e 7 14
e 7 20
e 7 24
e 7 25
e 7 32
e 8 30
e 8 34
e 9 10
e 9 15
e 9 16
e 9 18
e 9 20
e 10 13
e 10 16
e 10 19
e 10 23
e 10 28
e 11 16
e 11 18
e 11 26
e 11 28
e 11 31
e 12 13
e 12 14
e 12 30
e 12 32
e 12 33
e 12 35
e 13 14
e 13 19
e 13 23
e 13 28
e 14 24
e 14 25
e 15 18
e 15 20
e 15 21
e 15 29
e 16 26
e 17 21
e 17 22
e 17 24
e 17 31
e 17 34
e 17 35
e 18 20
e 18 28
e 18 31
e 19 22
e 19 23
e 19 25
e 19 28
e 19 33
e 20 32
e 21 22
e 21 29
e 21 31
e 21 34
e 22 25
e 22 31
e 22 33
e 22 34
e 23 26
e 23 27
e 23 28
e 24 25
e 24 35
e 25 33
e 26 27
e 27 29
e 28 31
e 30 32
e 30 33
e 30 34
e 30 35
e 31 34
e 32 33
e 32 35
e 33 35
